p cnf 968 2487
51 -701 -702 0
-51 701 0
-51 702 0
52 -51 -3 0
-52 51 0
-52 3 0
53 -5 -703 0
-53 5 0
-53 703 0
54 -53 -704 0
-54 53 0
-54 704 0
55 -705 -706 0
-55 705 0
-55 706 0
56 -707 -4 0
-56 707 0
-56 4 0
57 -56 -708 0
-57 56 0
-57 708 0
58 -709 -55 0
-58 709 0
-58 55 0
59 -10 -9 0
-59 10 0
-59 9 0
60 -59 -710 0
-60 59 0
-60 710 0
61 -711 -58 0
-61 711 0
-61 58 0
62 -13 -712 0
-62 13 0
-62 712 0
63 -62 -14 0
-63 62 0
-63 14 0
64 -713 -61 0
-64 713 0
-64 61 0
65 -16 -714 0
-65 16 0
-65 714 0
66 -65 -10 0
-66 65 0
-66 10 0
67 -715 -64 0
-67 715 0
-67 64 0
68 -716 -7 0
-68 716 0
-68 7 0
69 -68 -717 0
-69 68 0
-69 717 0
70 -718 -67 0
-70 718 0
-70 67 0
71 -19 -712 0
-71 19 0
-71 712 0
72 -71 -710 0
-72 71 0
-72 710 0
73 -719 -70 0
-73 719 0
-73 70 0
74 -20 -703 0
-74 20 0
-74 703 0
75 -74 -21 0
-75 74 0
-75 21 0
76 -720 -73 0
-76 720 0
-76 73 0
77 -5 -701 0
-77 5 0
-77 701 0
78 -77 -21 0
-78 77 0
-78 21 0
79 -721 -76 0
-79 721 0
-79 76 0
80 -722 -723 0
-80 722 0
-80 723 0
81 -80 -724 0
-81 80 0
-81 724 0
82 -725 -79 0
-82 725 0
-82 79 0
83 -25 -701 0
-83 25 0
-83 701 0
84 -83 -26 0
-84 83 0
-84 26 0
85 -726 -82 0
-85 726 0
-85 82 0
86 -27 -2 0
-86 27 0
-86 2 0
87 -86 -19 0
-87 86 0
-87 19 0
88 -727 -85 0
-88 727 0
-88 85 0
89 -728 -704 0
-89 728 0
-89 704 0
90 -89 -28 0
-90 89 0
-90 28 0
91 -729 -88 0
-91 729 0
-91 88 0
92 -30 -730 0
-92 30 0
-92 730 0
93 -92 -25 0
-93 92 0
-93 25 0
94 -731 -91 0
-94 731 0
-94 91 0
95 -723 -3 0
-95 723 0
-95 3 0
96 -95 -710 0
-96 95 0
-96 710 0
97 -732 -94 0
-97 732 0
-97 94 0
98 -31 -716 0
-98 31 0
-98 716 0
99 -98 -32 0
-99 98 0
-99 32 0
100 -733 -97 0
-100 733 0
-100 97 0
101 -33 -23 0
-101 33 0
-101 23 0
102 -101 -34 0
-102 101 0
-102 34 0
103 -734 -100 0
-103 734 0
-103 100 0
104 -36 -35 0
-104 36 0
-104 35 0
105 -104 -735 0
-105 104 0
-105 735 0
106 -736 -103 0
-106 736 0
-106 103 0
107 -737 -17 0
-107 737 0
-107 17 0
108 -107 -18 0
-108 107 0
-108 18 0
109 -738 -106 0
-109 738 0
-109 106 0
110 -37 -35 0
-110 37 0
-110 35 0
111 -110 -739 0
-111 110 0
-111 739 0
112 -740 -109 0
-112 740 0
-112 109 0
113 -8 -2 0
-113 8 0
-113 2 0
114 -113 -21 0
-114 113 0
-114 21 0
115 -741 -112 0
-115 741 0
-115 112 0
116 -742 -735 0
-116 742 0
-116 735 0
117 -116 -707 0
-117 116 0
-117 707 0
118 -743 -115 0
-118 743 0
-118 115 0
119 -40 -744 0
-119 40 0
-119 744 0
120 -119 -710 0
-120 119 0
-120 710 0
121 -745 -118 0
-121 745 0
-121 118 0
122 -746 -702 0
-122 746 0
-122 702 0
123 -122 -34 0
-123 122 0
-123 34 0
124 -747 -121 0
-124 747 0
-124 121 0
125 -36 -7 0
-125 36 0
-125 7 0
126 -125 -37 0
-126 125 0
-126 37 0
127 -748 -124 0
-127 748 0
-127 124 0
128 -749 -750 0
-128 749 0
-128 750 0
129 -128 -42 0
-129 128 0
-129 42 0
130 -751 -127 0
-130 751 0
-130 127 0
131 -17 -703 0
-131 17 0
-131 703 0
132 -131 -752 0
-132 131 0
-132 752 0
133 -753 -130 0
-133 753 0
-133 130 0
134 -737 -754 0
-134 737 0
-134 754 0
135 -134 -746 0
-135 134 0
-135 746 0
136 -755 -133 0
-136 755 0
-136 133 0
137 -730 -14 0
-137 730 0
-137 14 0
138 -137 -18 0
-138 137 0
-138 18 0
139 -756 -136 0
-139 756 0
-139 136 0
140 -757 -12 0
-140 757 0
-140 12 0
141 -140 -26 0
-141 140 0
-141 26 0
142 -758 -139 0
-142 758 0
-142 139 0
143 -759 -742 0
-143 759 0
-143 742 0
144 -143 -760 0
-144 143 0
-144 760 0
145 -761 -142 0
-145 761 0
-145 142 0
146 -14 -9 0
-146 14 0
-146 9 0
147 -146 -762 0
-147 146 0
-147 762 0
148 -763 -145 0
-148 763 0
-148 145 0
149 -764 -759 0
-149 764 0
-149 759 0
150 -149 -46 0
-150 149 0
-150 46 0
151 -765 -148 0
-151 765 0
-151 148 0
152 -760 -37 0
-152 760 0
-152 37 0
153 -152 -21 0
-153 152 0
-153 21 0
154 -766 -151 0
-154 766 0
-154 151 0
155 -22 -703 0
-155 22 0
-155 703 0
156 -155 -767 0
-156 155 0
-156 767 0
157 -768 -154 0
-157 768 0
-157 154 0
158 -44 -30 0
-158 44 0
-158 30 0
159 -158 -6 0
-159 158 0
-159 6 0
160 -769 -157 0
-160 769 0
-160 157 0
161 -35 -25 0
-161 35 0
-161 25 0
162 -161 -767 0
-162 161 0
-162 767 0
163 -770 -160 0
-163 770 0
-163 160 0
164 -17 -7 0
-164 17 0
-164 7 0
165 -164 -32 0
-165 164 0
-165 32 0
166 -771 -163 0
-166 771 0
-166 163 0
167 -772 -701 0
-167 772 0
-167 701 0
168 -167 -12 0
-168 167 0
-168 12 0
169 -773 -166 0
-169 773 0
-169 166 0
170 -767 -772 0
-170 767 0
-170 772 0
171 -170 -774 0
-171 170 0
-171 774 0
172 -775 -169 0
-172 775 0
-172 169 0
173 -38 -704 0
-173 38 0
-173 704 0
174 -173 -776 0
-174 173 0
-174 776 0
175 -777 -172 0
-175 777 0
-175 172 0
176 -47 -754 0
-176 47 0
-176 754 0
177 -176 -778 0
-177 176 0
-177 778 0
178 -779 -175 0
-178 779 0
-178 175 0
179 -780 -16 0
-179 780 0
-179 16 0
180 -179 -708 0
-180 179 0
-180 708 0
181 -781 -178 0
-181 781 0
-181 178 0
182 -37 -730 0
-182 37 0
-182 730 0
183 -182 -782 0
-183 182 0
-183 782 0
184 -783 -181 0
-184 783 0
-184 181 0
185 -760 -14 0
-185 760 0
-185 14 0
186 -185 -40 0
-186 185 0
-186 40 0
187 -784 -184 0
-187 784 0
-187 184 0
188 -40 -19 0
-188 40 0
-188 19 0
189 -188 -739 0
-189 188 0
-189 739 0
190 -785 -187 0
-190 785 0
-190 187 0
191 -728 -702 0
-191 728 0
-191 702 0
192 -191 -704 0
-192 191 0
-192 704 0
193 -786 -190 0
-193 786 0
-193 190 0
194 -35 -730 0
-194 35 0
-194 730 0
195 -194 -774 0
-195 194 0
-195 774 0
196 -787 -193 0
-196 787 0
-196 193 0
197 -23 -772 0
-197 23 0
-197 772 0
198 -197 -788 0
-198 197 0
-198 788 0
199 -789 -196 0
-199 789 0
-199 196 0
200 -722 -716 0
-200 722 0
-200 716 0
201 -200 -25 0
-201 200 0
-201 25 0
202 -790 -199 0
-202 790 0
-202 199 0
203 -764 -27 0
-203 764 0
-203 27 0
204 -203 -722 0
-204 203 0
-204 722 0
205 -791 -202 0
-205 791 0
-205 202 0
206 -43 -750 0
-206 43 0
-206 750 0
207 -206 -708 0
-207 206 0
-207 708 0
208 -792 -205 0
-208 792 0
-208 205 0
209 -37 -13 0
-209 37 0
-209 13 0
210 -209 -793 0
-210 209 0
-210 793 0
211 -794 -208 0
-211 794 0
-211 208 0
212 -31 -9 0
-212 31 0
-212 9 0
213 -212 -10 0
-213 212 0
-213 10 0
214 -795 -211 0
-214 795 0
-214 211 0
215 -16 -796 0
-215 16 0
-215 796 0
216 -215 -23 0
-216 215 0
-216 23 0
217 -797 -214 0
-217 797 0
-217 214 0
218 -704 -703 0
-218 704 0
-218 703 0
219 -218 -776 0
-219 218 0
-219 776 0
220 -798 -217 0
-220 798 0
-220 217 0
221 -759 -3 0
-221 759 0
-221 3 0
222 -221 -746 0
-222 221 0
-222 746 0
223 -799 -220 0
-223 799 0
-223 220 0
224 -48 -762 0
-224 48 0
-224 762 0
225 -224 -776 0
-225 224 0
-225 776 0
226 -800 -223 0
-226 800 0
-226 223 0
227 -780 -742 0
-227 780 0
-227 742 0
228 -227 -26 0
-228 227 0
-228 26 0
229 -801 -226 0
-229 801 0
-229 226 0
230 -44 -712 0
-230 44 0
-230 712 0
231 -230 -746 0
-231 230 0
-231 746 0
232 -802 -229 0
-232 802 0
-232 229 0
233 -43 -723 0
-233 43 0
-233 723 0
234 -233 -14 0
-234 233 0
-234 14 0
235 -803 -232 0
-235 803 0
-235 232 0
236 -804 -35 0
-236 804 0
-236 35 0
237 -236 -767 0
-237 236 0
-237 767 0
238 -805 -235 0
-238 805 0
-238 235 0
239 -723 -806 0
-239 723 0
-239 806 0
240 -239 -767 0
-240 239 0
-240 767 0
241 -807 -238 0
-241 807 0
-241 238 0
242 -48 -41 0
-242 48 0
-242 41 0
243 -242 -28 0
-243 242 0
-243 28 0
244 -808 -241 0
-244 808 0
-244 241 0
245 -45 -701 0
-245 45 0
-245 701 0
246 -245 -32 0
-246 245 0
-246 32 0
247 -809 -244 0
-247 809 0
-247 244 0
248 -42 -774 0
-248 42 0
-248 774 0
249 -248 -717 0
-249 248 0
-249 717 0
250 -810 -247 0
-250 810 0
-250 247 0
251 -793 -728 0
-251 793 0
-251 728 0
252 -251 -20 0
-252 251 0
-252 20 0
253 -811 -250 0
-253 811 0
-253 250 0
254 -13 -772 0
-254 13 0
-254 772 0
255 -254 -37 0
-255 254 0
-255 37 0
256 -812 -253 0
-256 812 0
-256 253 0
257 -757 -796 0
-257 757 0
-257 796 0
258 -257 -11 0
-258 257 0
-258 11 0
259 -813 -256 0
-259 813 0
-259 256 0
260 -8 -707 0
-260 8 0
-260 707 0
261 -260 -21 0
-261 260 0
-261 21 0
262 -814 -259 0
-262 814 0
-262 259 0
263 -45 -759 0
-263 45 0
-263 759 0
264 -263 -24 0
-264 263 0
-264 24 0
265 -815 -262 0
-265 815 0
-265 262 0
266 -746 -7 0
-266 746 0
-266 7 0
267 -266 -816 0
-267 266 0
-267 816 0
268 -817 -265 0
-268 817 0
-268 265 0
269 -47 -26 0
-269 47 0
-269 26 0
270 -269 -776 0
-270 269 0
-270 776 0
271 -818 -268 0
-271 818 0
-271 268 0
272 -819 -4 0
-272 819 0
-272 4 0
273 -272 -724 0
-273 272 0
-273 724 0
274 -820 -271 0
-274 820 0
-274 271 0
275 -760 -730 0
-275 760 0
-275 730 0
276 -275 -46 0
-276 275 0
-276 46 0
277 -821 -274 0
-277 821 0
-277 274 0
278 -49 -7 0
-278 49 0
-278 7 0
279 -278 -34 0
-279 278 0
-279 34 0
280 -822 -277 0
-280 822 0
-280 277 0
281 -41 -15 0
-281 41 0
-281 15 0
282 -281 -37 0
-282 281 0
-282 37 0
283 -823 -280 0
-283 823 0
-283 280 0
284 -744 -7 0
-284 744 0
-284 7 0
285 -284 -708 0
-285 284 0
-285 708 0
286 -824 -283 0
-286 824 0
-286 283 0
287 -749 -39 0
-287 749 0
-287 39 0
288 -287 -25 0
-288 287 0
-288 25 0
289 -825 -286 0
-289 825 0
-289 286 0
290 -749 -6 0
-290 749 0
-290 6 0
291 -290 -778 0
-291 290 0
-291 778 0
292 -826 -289 0
-292 826 0
-292 289 0
293 -752 -9 0
-293 752 0
-293 9 0
294 -293 -774 0
-294 293 0
-294 774 0
295 -827 -292 0
-295 827 0
-295 292 0
296 -9 -6 0
-296 9 0
-296 6 0
297 -296 -710 0
-297 296 0
-297 710 0
298 -828 -295 0
-298 828 0
-298 295 0
299 -757 -701 0
-299 757 0
-299 701 0
300 -299 -34 0
-300 299 0
-300 34 0
301 -829 -298 0
-301 829 0
-301 298 0
302 -716 -9 0
-302 716 0
-302 9 0
303 -302 -724 0
-303 302 0
-303 724 0
304 -830 -301 0
-304 830 0
-304 301 0
305 -831 -9 0
-305 831 0
-305 9 0
306 -305 -26 0
-306 305 0
-306 26 0
307 -832 -304 0
-307 832 0
-307 304 0
308 -716 -13 0
-308 716 0
-308 13 0
309 -308 -50 0
-309 308 0
-309 50 0
310 -833 -307 0
-310 833 0
-310 307 0
311 -45 -737 0
-311 45 0
-311 737 0
312 -311 -804 0
-312 311 0
-312 804 0
313 -834 -310 0
-313 834 0
-313 310 0
314 -760 -13 0
-314 760 0
-314 13 0
315 -314 -835 0
-315 314 0
-315 835 0
316 -836 -313 0
-316 836 0
-316 313 0
317 -14 -702 0
-317 14 0
-317 702 0
318 -317 -6 0
-318 317 0
-318 6 0
319 -837 -316 0
-319 837 0
-319 316 0
320 -728 -6 0
-320 728 0
-320 6 0
321 -320 -782 0
-321 320 0
-321 782 0
322 -838 -319 0
-322 838 0
-322 319 0
323 -778 -19 0
-323 778 0
-323 19 0
324 -323 -717 0
-324 323 0
-324 717 0
325 -839 -322 0
-325 839 0
-325 322 0
326 -41 -24 0
-326 41 0
-326 24 0
327 -326 -804 0
-327 326 0
-327 804 0
328 -840 -325 0
-328 840 0
-328 325 0
329 -764 -702 0
-329 764 0
-329 702 0
330 -329 -767 0
-330 329 0
-330 767 0
331 -841 -328 0
-331 841 0
-331 328 0
332 -31 -12 0
-332 31 0
-332 12 0
333 -332 -46 0
-333 332 0
-333 46 0
334 -842 -331 0
-334 842 0
-334 331 0
335 -819 -716 0
-335 819 0
-335 716 0
336 -335 -23 0
-336 335 0
-336 23 0
337 -843 -334 0
-337 843 0
-337 334 0
338 -780 -5 0
-338 780 0
-338 5 0
339 -338 -816 0
-339 338 0
-339 816 0
340 -844 -337 0
-340 844 0
-340 337 0
341 -43 -703 0
-341 43 0
-341 703 0
342 -341 -746 0
-342 341 0
-342 746 0
343 -845 -340 0
-343 845 0
-343 340 0
344 -804 -43 0
-344 804 0
-344 43 0
345 -344 -788 0
-345 344 0
-345 788 0
346 -846 -343 0
-346 846 0
-346 343 0
347 -831 -804 0
-347 831 0
-347 804 0
348 -347 -32 0
-348 347 0
-348 32 0
349 -847 -346 0
-349 847 0
-349 346 0
350 -701 -1 0
-350 701 0
-350 1 0
351 -350 -46 0
-351 350 0
-351 46 0
352 -848 -349 0
-352 848 0
-352 349 0
353 -8 -849 0
-353 8 0
-353 849 0
354 -353 -10 0
-354 353 0
-354 10 0
355 -850 -352 0
-355 850 0
-355 352 0
356 -759 -701 0
-356 759 0
-356 701 0
357 -356 -782 0
-357 356 0
-357 782 0
358 -851 -355 0
-358 851 0
-358 355 0
359 -29 -704 0
-359 29 0
-359 704 0
360 -359 -21 0
-360 359 0
-360 21 0
361 -852 -358 0
-361 852 0
-361 358 0
362 -728 -23 0
-362 728 0
-362 23 0
363 -362 -21 0
-363 362 0
-363 21 0
364 -853 -361 0
-364 853 0
-364 361 0
365 -45 -16 0
-365 45 0
-365 16 0
366 -365 -26 0
-366 365 0
-366 26 0
367 -854 -364 0
-367 854 0
-367 364 0
368 -35 -855 0
-368 35 0
-368 855 0
369 -368 -762 0
-369 368 0
-369 762 0
370 -856 -367 0
-370 856 0
-370 367 0
371 -723 -712 0
-371 723 0
-371 712 0
372 -371 -774 0
-372 371 0
-372 774 0
373 -857 -370 0
-373 857 0
-373 370 0
374 -759 -9 0
-374 759 0
-374 9 0
375 -374 -30 0
-375 374 0
-375 30 0
376 -858 -373 0
-376 858 0
-376 373 0
377 -47 -757 0
-377 47 0
-377 757 0
378 -377 -18 0
-378 377 0
-378 18 0
379 -859 -376 0
-379 859 0
-379 376 0
380 -746 -708 0
-380 746 0
-380 708 0
381 -380 -710 0
-381 380 0
-381 710 0
382 -860 -379 0
-382 860 0
-382 379 0
383 -722 -22 0
-383 722 0
-383 22 0
384 -383 -10 0
-384 383 0
-384 10 0
385 -861 -382 0
-385 861 0
-385 382 0
386 -29 -754 0
-386 29 0
-386 754 0
387 -386 -17 0
-387 386 0
-387 17 0
388 -862 -385 0
-388 862 0
-388 385 0
389 -25 -739 0
-389 25 0
-389 739 0
390 -389 -26 0
-390 389 0
-390 26 0
391 -863 -388 0
-391 863 0
-391 388 0
392 -831 -707 0
-392 831 0
-392 707 0
393 -392 -864 0
-393 392 0
-393 864 0
394 -865 -391 0
-394 865 0
-394 391 0
395 -22 -15 0
-395 22 0
-395 15 0
396 -395 -767 0
-396 395 0
-396 767 0
397 -866 -394 0
-397 866 0
-397 394 0
398 -44 -716 0
-398 44 0
-398 716 0
399 -398 -24 0
-399 398 0
-399 24 0
400 -867 -397 0
-400 867 0
-400 397 0
401 -45 -702 0
-401 45 0
-401 702 0
402 -401 -778 0
-402 401 0
-402 778 0
403 -868 -400 0
-403 868 0
-403 400 0
404 -43 -22 0
-404 43 0
-404 22 0
405 -404 -831 0
-405 404 0
-405 831 0
406 -869 -403 0
-406 869 0
-406 403 0
407 -50 -3 0
-407 50 0
-407 3 0
408 -407 -864 0
-408 407 0
-408 864 0
409 -870 -406 0
-409 870 0
-409 406 0
410 -764 -730 0
-410 764 0
-410 730 0
411 -410 -831 0
-411 410 0
-411 831 0
412 -871 -409 0
-412 871 0
-412 409 0
413 -831 -35 0
-413 831 0
-413 35 0
414 -413 -33 0
-414 413 0
-414 33 0
415 -872 -412 0
-415 872 0
-415 412 0
416 -831 -22 0
-416 831 0
-416 22 0
417 -416 -816 0
-417 416 0
-417 816 0
418 -873 -415 0
-418 873 0
-418 415 0
419 -710 -6 0
-419 710 0
-419 6 0
420 -419 -21 0
-420 419 0
-420 21 0
421 -874 -418 0
-421 874 0
-421 418 0
422 -35 -796 0
-422 35 0
-422 796 0
423 -422 -20 0
-423 422 0
-423 20 0
424 -875 -421 0
-424 875 0
-424 421 0
425 -767 -14 0
-425 767 0
-425 14 0
426 -425 -717 0
-426 425 0
-426 717 0
427 -876 -424 0
-427 876 0
-427 424 0
428 -17 -2 0
-428 17 0
-428 2 0
429 -428 -18 0
-429 428 0
-429 18 0
430 -877 -427 0
-430 877 0
-430 427 0
431 -754 -4 0
-431 754 0
-431 4 0
432 -431 -855 0
-432 431 0
-432 855 0
433 -878 -430 0
-433 878 0
-433 430 0
434 -18 -716 0
-434 18 0
-434 716 0
435 -434 -21 0
-435 434 0
-435 21 0
436 -879 -433 0
-436 879 0
-436 433 0
437 -16 -1 0
-437 16 0
-437 1 0
438 -437 -28 0
-438 437 0
-438 28 0
439 -880 -436 0
-439 880 0
-439 436 0
440 -819 -714 0
-440 819 0
-440 714 0
441 -440 -40 0
-441 440 0
-441 40 0
442 -881 -439 0
-442 881 0
-442 439 0
443 -38 -11 0
-443 38 0
-443 11 0
444 -443 -776 0
-444 443 0
-444 776 0
445 -882 -442 0
-445 882 0
-445 442 0
446 -25 -22 0
-446 25 0
-446 22 0
447 -446 -26 0
-447 446 0
-447 26 0
448 -883 -445 0
-448 883 0
-448 445 0
449 -749 -11 0
-449 749 0
-449 11 0
450 -449 -42 0
-450 449 0
-450 42 0
451 -884 -448 0
-451 884 0
-451 448 0
452 -835 -24 0
-452 835 0
-452 24 0
453 -452 -855 0
-453 452 0
-453 855 0
454 -885 -451 0
-454 885 0
-454 451 0
455 -44 -38 0
-455 44 0
-455 38 0
456 -455 -15 0
-456 455 0
-456 15 0
457 -886 -454 0
-457 886 0
-457 454 0
458 -724 -816 0
-458 724 0
-458 816 0
459 -458 -46 0
-459 458 0
-459 46 0
460 -887 -457 0
-460 887 0
-460 457 0
461 -22 -18 0
-461 22 0
-461 18 0
462 -461 -21 0
-462 461 0
-462 21 0
463 -888 -460 0
-463 888 0
-463 460 0
464 -749 -735 0
-464 749 0
-464 735 0
465 -464 -19 0
-465 464 0
-465 19 0
466 -889 -463 0
-466 889 0
-466 463 0
467 -42 -38 0
-467 42 0
-467 38 0
468 -467 -776 0
-468 467 0
-468 776 0
469 -890 -466 0
-469 890 0
-469 466 0
470 -45 -723 0
-470 45 0
-470 723 0
471 -470 -806 0
-471 470 0
-471 806 0
472 -891 -469 0
-472 891 0
-472 469 0
473 -42 -24 0
-473 42 0
-473 24 0
474 -473 -32 0
-474 473 0
-474 32 0
475 -892 -472 0
-475 892 0
-475 472 0
476 -32 -793 0
-476 32 0
-476 793 0
477 -476 -782 0
-477 476 0
-477 782 0
478 -893 -475 0
-478 893 0
-478 475 0
479 -759 -39 0
-479 759 0
-479 39 0
480 -479 -717 0
-480 479 0
-480 717 0
481 -894 -478 0
-481 894 0
-481 478 0
482 -737 -9 0
-482 737 0
-482 9 0
483 -482 -19 0
-483 482 0
-483 19 0
484 -895 -481 0
-484 895 0
-484 481 0
485 -50 -47 0
-485 50 0
-485 47 0
486 -485 -18 0
-486 485 0
-486 18 0
487 -896 -484 0
-487 896 0
-487 484 0
488 -864 -10 0
-488 864 0
-488 10 0
489 -488 -28 0
-489 488 0
-489 28 0
490 -897 -487 0
-490 897 0
-490 487 0
491 -39 -703 0
-491 39 0
-491 703 0
492 -491 -37 0
-492 491 0
-492 37 0
493 -898 -490 0
-493 898 0
-493 490 0
494 -793 -710 0
-494 793 0
-494 710 0
495 -494 -778 0
-495 494 0
-495 778 0
496 -899 -493 0
-496 899 0
-496 493 0
497 -760 -22 0
-497 760 0
-497 22 0
498 -497 -739 0
-498 497 0
-498 739 0
499 -900 -496 0
-499 900 0
-499 496 0
500 -744 -849 0
-500 744 0
-500 849 0
501 -500 -793 0
-501 500 0
-501 793 0
502 -901 -499 0
-502 901 0
-502 499 0
503 -749 -703 0
-503 749 0
-503 703 0
504 -503 -21 0
-504 503 0
-504 21 0
505 -902 -502 0
-505 902 0
-505 502 0
506 -728 -22 0
-506 728 0
-506 22 0
507 -506 -19 0
-507 506 0
-507 19 0
508 -903 -505 0
-508 903 0
-508 505 0
509 -754 -19 0
-509 754 0
-509 19 0
510 -509 -20 0
-510 509 0
-510 20 0
511 -904 -508 0
-511 904 0
-511 508 0
512 -15 -2 0
-512 15 0
-512 2 0
513 -512 -50 0
-513 512 0
-513 50 0
514 -905 -511 0
-514 905 0
-514 511 0
515 -749 -31 0
-515 749 0
-515 31 0
516 -515 -707 0
-516 515 0
-516 707 0
517 -906 -514 0
-517 906 0
-517 514 0
518 -806 -9 0
-518 806 0
-518 9 0
519 -518 -739 0
-519 518 0
-519 739 0
520 -907 -517 0
-520 907 0
-520 517 0
521 -730 -714 0
-521 730 0
-521 714 0
522 -521 -30 0
-522 521 0
-522 30 0
523 -908 -520 0
-523 908 0
-523 520 0
524 -20 -806 0
-524 20 0
-524 806 0
525 -524 -42 0
-525 524 0
-525 42 0
526 -909 -523 0
-526 909 0
-526 523 0
527 -48 -22 0
-527 48 0
-527 22 0
528 -527 -716 0
-528 527 0
-528 716 0
529 -910 -526 0
-529 910 0
-529 526 0
530 -404 -849 0
-530 404 0
-530 849 0
531 -911 -529 0
-531 911 0
-531 529 0
532 -757 -772 0
-532 757 0
-532 772 0
533 -532 -776 0
-533 532 0
-533 776 0
534 -912 -531 0
-534 912 0
-534 531 0
535 -36 -703 0
-535 36 0
-535 703 0
536 -535 -31 0
-536 535 0
-536 31 0
537 -913 -534 0
-537 913 0
-537 534 0
538 -29 -735 0
-538 29 0
-538 735 0
539 -538 -778 0
-539 538 0
-539 778 0
540 -914 -537 0
-540 914 0
-540 537 0
541 -50 -8 0
-541 50 0
-541 8 0
542 -541 -20 0
-542 541 0
-542 20 0
543 -915 -540 0
-543 915 0
-543 540 0
544 -780 -864 0
-544 780 0
-544 864 0
545 -544 -704 0
-545 544 0
-545 704 0
546 -916 -543 0
-546 916 0
-546 543 0
547 -30 -849 0
-547 30 0
-547 849 0
548 -547 -717 0
-548 547 0
-548 717 0
549 -917 -546 0
-549 917 0
-549 546 0
550 -724 -707 0
-550 724 0
-550 707 0
551 -550 -34 0
-551 550 0
-551 34 0
552 -918 -549 0
-552 918 0
-552 549 0
553 -703 -849 0
-553 703 0
-553 849 0
554 -553 -804 0
-554 553 0
-554 804 0
555 -919 -552 0
-555 919 0
-555 552 0
556 -804 -17 0
-556 804 0
-556 17 0
557 -556 -32 0
-557 556 0
-557 32 0
558 -920 -555 0
-558 920 0
-558 555 0
559 -37 -806 0
-559 37 0
-559 806 0
560 -559 -774 0
-560 559 0
-560 774 0
561 -921 -558 0
-561 921 0
-561 558 0
562 -425 -774 0
-562 425 0
-562 774 0
563 -922 -561 0
-563 922 0
-563 561 0
564 -742 -4 0
-564 742 0
-564 4 0
565 -564 -7 0
-565 564 0
-565 7 0
566 -923 -563 0
-566 923 0
-566 563 0
567 -39 -849 0
-567 39 0
-567 849 0
568 -567 -752 0
-568 567 0
-568 752 0
569 -924 -566 0
-569 924 0
-569 566 0
570 -27 -702 0
-570 27 0
-570 702 0
571 -570 -737 0
-571 570 0
-571 737 0
572 -925 -569 0
-572 925 0
-572 569 0
573 -730 -703 0
-573 730 0
-573 703 0
574 -573 -724 0
-574 573 0
-574 724 0
575 -926 -572 0
-575 926 0
-575 572 0
576 -742 -737 0
-576 742 0
-576 737 0
577 -576 -32 0
-577 576 0
-577 32 0
578 -927 -575 0
-578 927 0
-578 575 0
579 -41 -27 0
-579 41 0
-579 27 0
580 -579 -23 0
-580 579 0
-580 23 0
581 -928 -578 0
-581 928 0
-581 578 0
582 -36 -1 0
-582 36 0
-582 1 0
583 -582 -6 0
-583 582 0
-583 6 0
584 -929 -581 0
-584 929 0
-584 581 0
585 -723 -701 0
-585 723 0
-585 701 0
586 -585 -33 0
-586 585 0
-586 33 0
587 -930 -584 0
-587 930 0
-587 584 0
588 -710 -708 0
-588 710 0
-588 708 0
589 -588 -816 0
-589 588 0
-589 816 0
590 -931 -587 0
-590 931 0
-590 587 0
591 -730 -2 0
-591 730 0
-591 2 0
592 -591 -50 0
-592 591 0
-592 50 0
593 -932 -590 0
-593 932 0
-593 590 0
594 -831 -819 0
-594 831 0
-594 819 0
595 -594 -20 0
-595 594 0
-595 20 0
596 -933 -593 0
-596 933 0
-596 593 0
597 -38 -735 0
-597 38 0
-597 735 0
598 -597 -707 0
-598 597 0
-598 707 0
599 -934 -596 0
-599 934 0
-599 596 0
600 -30 -14 0
-600 30 0
-600 14 0
601 -600 -728 0
-601 600 0
-601 728 0
602 -935 -599 0
-602 935 0
-602 599 0
603 -744 -701 0
-603 744 0
-603 701 0
604 -603 -14 0
-604 603 0
-604 14 0
605 -936 -602 0
-605 936 0
-605 602 0
606 -722 -849 0
-606 722 0
-606 849 0
607 -606 -704 0
-607 606 0
-607 704 0
608 -937 -605 0
-608 937 0
-608 605 0
609 -45 -23 0
-609 45 0
-609 23 0
610 -609 -782 0
-610 609 0
-610 782 0
611 -938 -608 0
-611 938 0
-611 608 0
612 -15 -5 0
-612 15 0
-612 5 0
613 -612 -31 0
-613 612 0
-613 31 0
614 -939 -611 0
-614 939 0
-614 611 0
615 -38 -723 0
-615 38 0
-615 723 0
616 -615 -7 0
-616 615 0
-616 7 0
617 -940 -614 0
-617 940 0
-617 614 0
618 -39 -3 0
-618 39 0
-618 3 0
619 -618 -37 0
-619 618 0
-619 37 0
620 -941 -617 0
-620 941 0
-620 617 0
621 -275 -40 0
-621 275 0
-621 40 0
622 -942 -620 0
-622 942 0
-622 620 0
623 -835 -4 0
-623 835 0
-623 4 0
624 -623 -796 0
-624 623 0
-624 796 0
625 -943 -622 0
-625 943 0
-625 622 0
626 -831 -1 0
-626 831 0
-626 1 0
627 -626 -707 0
-627 626 0
-627 707 0
628 -944 -625 0
-628 944 0
-628 625 0
629 -760 -703 0
-629 760 0
-629 703 0
630 -629 -835 0
-630 629 0
-630 835 0
631 -945 -628 0
-631 945 0
-631 628 0
632 -24 -767 0
-632 24 0
-632 767 0
633 -632 -18 0
-633 632 0
-633 18 0
634 -946 -631 0
-634 946 0
-634 631 0
635 -13 -703 0
-635 13 0
-635 703 0
636 -635 -767 0
-636 635 0
-636 767 0
637 -947 -634 0
-637 947 0
-637 634 0
638 -44 -1 0
-638 44 0
-638 1 0
639 -638 -16 0
-639 638 0
-639 16 0
640 -948 -637 0
-640 948 0
-640 637 0
641 -749 -816 0
-641 749 0
-641 816 0
642 -641 -21 0
-642 641 0
-642 21 0
643 -949 -640 0
-643 949 0
-643 640 0
644 -804 -14 0
-644 804 0
-644 14 0
645 -644 -717 0
-645 644 0
-645 717 0
646 -950 -643 0
-646 950 0
-646 643 0
647 -17 -15 0
-647 17 0
-647 15 0
648 -647 -16 0
-648 647 0
-648 16 0
649 -951 -646 0
-649 951 0
-649 646 0
650 -14 -4 0
-650 14 0
-650 4 0
651 -650 -8 0
-651 650 0
-651 8 0
652 -952 -649 0
-652 952 0
-652 649 0
653 -34 -710 0
-653 34 0
-653 710 0
654 -653 -18 0
-654 653 0
-654 18 0
655 -953 -652 0
-655 953 0
-655 652 0
656 -20 -3 0
-656 20 0
-656 3 0
657 -656 -776 0
-657 656 0
-657 776 0
658 -954 -655 0
-658 954 0
-658 655 0
659 -744 -17 0
-659 744 0
-659 17 0
660 -659 -16 0
-660 659 0
-660 16 0
661 -955 -658 0
-661 955 0
-661 658 0
662 -804 -703 0
-662 804 0
-662 703 0
663 -662 -28 0
-663 662 0
-663 28 0
664 -956 -661 0
-664 956 0
-664 661 0
665 -45 -703 0
-665 45 0
-665 703 0
666 -665 -849 0
-666 665 0
-666 849 0
667 -957 -664 0
-667 957 0
-667 664 0
668 -35 -712 0
-668 35 0
-668 712 0
669 -668 -778 0
-669 668 0
-669 778 0
670 -958 -667 0
-670 958 0
-670 667 0
671 -45 -9 0
-671 45 0
-671 9 0
672 -671 -742 0
-672 671 0
-672 742 0
673 -959 -670 0
-673 959 0
-673 670 0
674 -757 -4 0
-674 757 0
-674 4 0
675 -674 -724 0
-675 674 0
-675 724 0
676 -960 -673 0
-676 960 0
-676 673 0
677 -749 -796 0
-677 749 0
-677 796 0
678 -677 -752 0
-678 677 0
-678 752 0
679 -961 -676 0
-679 961 0
-679 676 0
680 -716 -5 0
-680 716 0
-680 5 0
681 -680 -14 0
-681 680 0
-681 14 0
682 -962 -679 0
-682 962 0
-682 679 0
683 -36 -17 0
-683 36 0
-683 17 0
684 -683 -752 0
-684 683 0
-684 752 0
685 -963 -682 0
-685 963 0
-685 682 0
686 -6 -1 0
-686 6 0
-686 1 0
687 -686 -710 0
-687 686 0
-687 710 0
688 -964 -685 0
-688 964 0
-688 685 0
689 -760 -737 0
-689 760 0
-689 737 0
690 -689 -34 0
-690 689 0
-690 34 0
691 -965 -688 0
-691 965 0
-691 688 0
692 -742 -12 0
-692 742 0
-692 12 0
693 -692 -23 0
-693 692 0
-693 23 0
694 -966 -691 0
-694 966 0
-694 691 0
695 -16 -703 0
-695 16 0
-695 703 0
696 -695 -717 0
-696 695 0
-696 717 0
697 -967 -694 0
-697 967 0
-697 694 0
698 -730 -735 0
-698 730 0
-698 735 0
699 -698 -18 0
-699 698 0
-699 18 0
700 -968 -697 0
-700 968 0
-700 697 0
-701 -2 0
701 2 0
-702 -1 0
702 1 0
-703 -4 0
703 4 0
-704 -6 0
704 6 0
-705 -54 0
705 54 0
-706 -52 0
706 52 0
-707 -7 0
707 7 0
-708 -8 0
708 8 0
-709 -57 0
709 57 0
-710 -11 0
710 11 0
-711 -60 0
711 60 0
-712 -12 0
712 12 0
-713 -63 0
713 63 0
-714 -15 0
714 15 0
-715 -66 0
715 66 0
-716 -17 0
716 17 0
-717 -18 0
717 18 0
-718 -69 0
718 69 0
-719 -72 0
719 72 0
-720 -75 0
720 75 0
-721 -78 0
721 78 0
-722 -23 0
722 23 0
-723 -22 0
723 22 0
-724 -24 0
724 24 0
-725 -81 0
725 81 0
-726 -84 0
726 84 0
-727 -87 0
727 87 0
-728 -25 0
728 25 0
-729 -90 0
729 90 0
-730 -29 0
730 29 0
-731 -93 0
731 93 0
-732 -96 0
732 96 0
-733 -99 0
733 99 0
-734 -102 0
734 102 0
-735 -16 0
735 16 0
-736 -105 0
736 105 0
-737 -35 0
737 35 0
-738 -108 0
738 108 0
-739 -10 0
739 10 0
-740 -111 0
740 111 0
-741 -114 0
741 114 0
-742 -38 0
742 38 0
-743 -117 0
743 117 0
-744 -39 0
744 39 0
-745 -120 0
745 120 0
-746 -37 0
746 37 0
-747 -123 0
747 123 0
-748 -126 0
748 126 0
-749 -41 0
749 41 0
-750 -9 0
750 9 0
-751 -129 0
751 129 0
-752 -32 0
752 32 0
-753 -132 0
753 132 0
-754 -27 0
754 27 0
-755 -135 0
755 135 0
-756 -138 0
756 138 0
-757 -30 0
757 30 0
-758 -141 0
758 141 0
-759 -43 0
759 43 0
-760 -44 0
760 44 0
-761 -144 0
761 144 0
-762 -26 0
762 26 0
-763 -147 0
763 147 0
-764 -45 0
764 45 0
-765 -150 0
765 150 0
-766 -153 0
766 153 0
-767 -19 0
767 19 0
-768 -156 0
768 156 0
-769 -159 0
769 159 0
-770 -162 0
770 162 0
-771 -165 0
771 165 0
-772 -5 0
772 5 0
-773 -168 0
773 168 0
-774 -34 0
774 34 0
-775 -171 0
775 171 0
-776 -21 0
776 21 0
-777 -174 0
777 174 0
-778 -42 0
778 42 0
-779 -177 0
779 177 0
-780 -48 0
780 48 0
-781 -180 0
781 180 0
-782 -46 0
782 46 0
-783 -183 0
783 183 0
-784 -186 0
784 186 0
-785 -189 0
785 189 0
-786 -192 0
786 192 0
-787 -195 0
787 195 0
-788 -47 0
788 47 0
-789 -198 0
789 198 0
-790 -201 0
790 201 0
-791 -204 0
791 204 0
-792 -207 0
792 207 0
-793 -28 0
793 28 0
-794 -210 0
794 210 0
-795 -213 0
795 213 0
-796 -14 0
796 14 0
-797 -216 0
797 216 0
-798 -219 0
798 219 0
-799 -222 0
799 222 0
-800 -225 0
800 225 0
-801 -228 0
801 228 0
-802 -231 0
802 231 0
-803 -234 0
803 234 0
-804 -49 0
804 49 0
-805 -237 0
805 237 0
-806 -13 0
806 13 0
-807 -240 0
807 240 0
-808 -243 0
808 243 0
-809 -246 0
809 246 0
-810 -249 0
810 249 0
-811 -252 0
811 252 0
-812 -255 0
812 255 0
-813 -258 0
813 258 0
-814 -261 0
814 261 0
-815 -264 0
815 264 0
-816 -20 0
816 20 0
-817 -267 0
817 267 0
-818 -270 0
818 270 0
-819 -31 0
819 31 0
-820 -273 0
820 273 0
-821 -276 0
821 276 0
-822 -279 0
822 279 0
-823 -282 0
823 282 0
-824 -285 0
824 285 0
-825 -288 0
825 288 0
-826 -291 0
826 291 0
-827 -294 0
827 294 0
-828 -297 0
828 297 0
-829 -300 0
829 300 0
-830 -303 0
830 303 0
-831 -50 0
831 50 0
-832 -306 0
832 306 0
-833 -309 0
833 309 0
-834 -312 0
834 312 0
-835 -36 0
835 36 0
-836 -315 0
836 315 0
-837 -318 0
837 318 0
-838 -321 0
838 321 0
-839 -324 0
839 324 0
-840 -327 0
840 327 0
-841 -330 0
841 330 0
-842 -333 0
842 333 0
-843 -336 0
843 336 0
-844 -339 0
844 339 0
-845 -342 0
845 342 0
-846 -345 0
846 345 0
-847 -348 0
847 348 0
-848 -351 0
848 351 0
-849 -3 0
849 3 0
-850 -354 0
850 354 0
-851 -357 0
851 357 0
-852 -360 0
852 360 0
-853 -363 0
853 363 0
-854 -366 0
854 366 0
-855 -33 0
855 33 0
-856 -369 0
856 369 0
-857 -372 0
857 372 0
-858 -375 0
858 375 0
-859 -378 0
859 378 0
-860 -381 0
860 381 0
-861 -384 0
861 384 0
-862 -387 0
862 387 0
-863 -390 0
863 390 0
-864 -40 0
864 40 0
-865 -393 0
865 393 0
-866 -396 0
866 396 0
-867 -399 0
867 399 0
-868 -402 0
868 402 0
-869 -405 0
869 405 0
-870 -408 0
870 408 0
-871 -411 0
871 411 0
-872 -414 0
872 414 0
-873 -417 0
873 417 0
-874 -420 0
874 420 0
-875 -423 0
875 423 0
-876 -426 0
876 426 0
-877 -429 0
877 429 0
-878 -432 0
878 432 0
-879 -435 0
879 435 0
-880 -438 0
880 438 0
-881 -441 0
881 441 0
-882 -444 0
882 444 0
-883 -447 0
883 447 0
-884 -450 0
884 450 0
-885 -453 0
885 453 0
-886 -456 0
886 456 0
-887 -459 0
887 459 0
-888 -462 0
888 462 0
-889 -465 0
889 465 0
-890 -468 0
890 468 0
-891 -471 0
891 471 0
-892 -474 0
892 474 0
-893 -477 0
893 477 0
-894 -480 0
894 480 0
-895 -483 0
895 483 0
-896 -486 0
896 486 0
-897 -489 0
897 489 0
-898 -492 0
898 492 0
-899 -495 0
899 495 0
-900 -498 0
900 498 0
-901 -501 0
901 501 0
-902 -504 0
902 504 0
-903 -507 0
903 507 0
-904 -510 0
904 510 0
-905 -513 0
905 513 0
-906 -516 0
906 516 0
-907 -519 0
907 519 0
-908 -522 0
908 522 0
-909 -525 0
909 525 0
-910 -528 0
910 528 0
-911 -530 0
911 530 0
-912 -533 0
912 533 0
-913 -536 0
913 536 0
-914 -539 0
914 539 0
-915 -542 0
915 542 0
-916 -545 0
916 545 0
-917 -548 0
917 548 0
-918 -551 0
918 551 0
-919 -554 0
919 554 0
-920 -557 0
920 557 0
-921 -560 0
921 560 0
-922 -562 0
922 562 0
-923 -565 0
923 565 0
-924 -568 0
924 568 0
-925 -571 0
925 571 0
-926 -574 0
926 574 0
-927 -577 0
927 577 0
-928 -580 0
928 580 0
-929 -583 0
929 583 0
-930 -586 0
930 586 0
-931 -589 0
931 589 0
-932 -592 0
932 592 0
-933 -595 0
933 595 0
-934 -598 0
934 598 0
-935 -601 0
935 601 0
-936 -604 0
936 604 0
-937 -607 0
937 607 0
-938 -610 0
938 610 0
-939 -613 0
939 613 0
-940 -616 0
940 616 0
-941 -619 0
941 619 0
-942 -621 0
942 621 0
-943 -624 0
943 624 0
-944 -627 0
944 627 0
-945 -630 0
945 630 0
-946 -633 0
946 633 0
-947 -636 0
947 636 0
-948 -639 0
948 639 0
-949 -642 0
949 642 0
-950 -645 0
950 645 0
-951 -648 0
951 648 0
-952 -651 0
952 651 0
-953 -654 0
953 654 0
-954 -657 0
954 657 0
-955 -660 0
955 660 0
-956 -663 0
956 663 0
-957 -666 0
957 666 0
-958 -669 0
958 669 0
-959 -672 0
959 672 0
-960 -675 0
960 675 0
-961 -678 0
961 678 0
-962 -681 0
962 681 0
-963 -684 0
963 684 0
-964 -687 0
964 687 0
-965 -690 0
965 690 0
-966 -693 0
966 693 0
-967 -696 0
967 696 0
-968 -699 0
968 699 0
700 0
